c This file is generated by oracV2cnf
c Generated on Tue Feb 16 22:17:55 2016
p cnf 11 25
-1 -3 -8 0
1 8 0
3 8 0
-3 -4 -10 0
3 10 0
4 10 0
-2 -10 -9 0
2 9 0
10 9 0
-10 -5 -11 0
10 11 0
5 11 0
-8 -9 -6 0
8 6 0
9 6 0
-9 -11 -7 0
9 7 0
11 7 0
c assign values for PIs:
1 0
-2 0
3 0
4 0
-5 0
